c Pebbling pyramidal / xor / H =4
p cnf 20 85
1 2 0
-1 -2 0
3 4 0
-3 -4 0
5 6 0
-5 -6 0
7 8 0
-7 -8 0
1 -2 3 -4 9 10 0
1 -2 -3 4 9 10 0
-1 2 3 -4 9 10 0
-1 2 -3 4 9 10 0
1 -2 3 -4 -9 -10 0
1 -2 -3 4 -9 -10 0
-1 2 3 -4 -9 -10 0
-1 2 -3 4 -9 -10 0
3 -4 5 -6 11 12 0
3 -4 -5 6 11 12 0
-3 4 5 -6 11 12 0
-3 4 -5 6 11 12 0
3 -4 5 -6 -11 -12 0
3 -4 -5 6 -11 -12 0
-3 4 5 -6 -11 -12 0
-3 4 -5 6 -11 -12 0
5 -6 7 -8 13 14 0
5 -6 -7 8 13 14 0
-5 6 7 -8 13 14 0
-5 6 -7 8 13 14 0
5 -6 7 -8 -13 -14 0
5 -6 -7 8 -13 -14 0
-5 6 7 -8 -13 -14 0
-5 6 -7 8 -13 -14 0
9 -10 11 -12 15 16 0
9 -10 -11 12 15 16 0
-9 10 11 -12 15 16 0
-9 10 -11 12 15 16 0
9 -10 11 -12 -15 -16 0
9 -10 -11 12 -15 -16 0
-9 10 11 -12 -15 -16 0
-9 10 -11 12 -15 -16 0
11 -12 13 -14 17 18 0
11 -12 -13 14 17 18 0
-11 12 13 -14 17 18 0
-11 12 -13 14 17 18 0
11 -12 13 -14 -17 -18 0
11 -12 -13 14 -17 -18 0
-11 12 13 -14 -17 -18 0
-11 12 -13 14 -17 -18 0
15 -16 17 -18 19 20 0
15 -16 -17 18 19 20 0
-15 16 17 -18 19 20 0
-15 16 -17 18 19 20 0
15 -16 17 -18 -19 -20 0
15 -16 -17 18 -19 -20 0
-15 16 17 -18 -19 -20 0
-15 16 -17 18 -19 -20 0
-19 20 0
-20 19 0
-17 -20 -15 0
-3 -16 -15 0
1 -20 17 0
19 -8 20 0
-7 -14 -1 0
-4 -2 11 0
20 6 16 0
-8 5 20 0
20 -16 6 0
-11 -8 20 0
-13 18 -4 0
17 -19 -7 0
-20 19 16 0
-8 -11 19 0
16 -14 20 0
-10 -2 -12 0
-3 6 -13 0
11 -12 17 0
-1 -14 17 0
12 18 13 0
20 -4 -1 0
19 -3 -16 0
19 15 -16 0
-16 -1 9 0
20 -15 18 0
-10 -18 3 0
-10 1 -12 0